10
0 6 8 7 3 1 9 3 3 10 
6 0 1 2 2 8 7 5 7 8 
8 1 0 5 5 1 3 10 4 4 
7 2 5 0 9 6 3 3 5 6 
3 2 5 9 0 4 7 8 10 5 
1 8 1 6 4 0 1 6 4 6 
9 7 3 3 7 1 0 4 10 3 
3 5 10 3 8 6 4 0 8 5 
3 7 4 5 10 4 10 8 0 5 
10 8 4 6 5 6 3 5 5 0 

